qbf_easy_train/easy_3618_UNSAT.qdimacs
p cnf 26 74
a 4 14 6 0
e 1 2 3 5 7 8 9 10 11 12 13 15 16 17 18 19 20 21 22 23 24 25 26 0
1 -2 -3 0
-1 2 -3 0
1 2 3 0
-1 -2 3 0
5 -1 0
5 -4 0
1 4 -5 0
6 -7 -8 0
-6 7 -8 0
6 7 8 0
-6 -7 8 0
9 8 0
9 1 0
-8 -1 -9 0
-9 -10 -11 0
9 10 -11 0
-9 10 11 0
9 -10 11 0
1 -4 -12 0
-1 4 -12 0
1 4 12 0
-1 -4 12 0
-1 -12 -13 0
1 12 -13 0
-1 12 13 0
1 -12 13 0
14 11 0
14 13 0
-11 -13 -14 0
15 -2 0
15 -12 0
2 12 -15 0
-14 15 -16 0
14 -15 -16 0
-14 -15 16 0
14 15 16 0
-17 -5 0
-17 -16 0
5 16 17 0
-3 17 -18 0
3 -17 -18 0
-3 -17 18 0
3 17 18 0
19 20 -21 0
-19 -20 -21 0
19 -20 21 0
-19 20 21 0
20 -12 -22 0
-20 12 -22 0
20 12 22 0
-20 -12 22 0
-21 22 -23 0
21 -22 -23 0
-21 -22 23 0
21 22 23 0
6 8 -24 0
-6 -8 -24 0
6 -8 24 0
-6 8 24 0
-23 24 -25 0
23 -24 -25 0
-23 -24 25 0
23 24 25 0
-26 18 0
-26 25 0
-18 -25 26 0
-7 5 -11 10 14 -8 0
21 -1 2 17 -11 -20 -3 0
-20 19 9 -7 -1 0
25 16 19 -23 -2 5 0
3 25 21 -19 -14 0
1 20 -23 -8 0
-19 -1 -18 20 0
26 0
