sat_easy_train/easy_3618_UNSAT.dimacs
p cnf 149 505
-2 -3 -4 0
2 3 -4 0
-2 3 4 0
2 -3 4 0
-6 -3 -7 0
6 3 -7 0
-6 3 7 0
6 -3 7 0
7 2 -8 0
-7 -2 -8 0
7 -2 8 0
-7 2 8 0
-4 -8 -9 0
4 8 -9 0
-4 8 9 0
4 -8 9 0
-10 4 0
-10 -9 0
-4 9 10 0
11 -5 0
11 10 0
5 -10 -11 0
-4 11 -12 0
4 -11 -12 0
-4 -11 12 0
4 11 12 0
-13 1 0
-13 12 0
-1 -12 13 0
-13 -9 -14 0
13 9 -14 0
-13 9 14 0
13 -9 14 0
-15 16 -17 0
15 -16 -17 0
-15 -16 17 0
15 16 17 0
18 -17 0
18 5 0
17 -5 -18 0
19 14 0
19 -18 0
-14 18 -19 0
-19 -20 -21 0
19 20 -21 0
-19 20 21 0
19 -20 21 0
23 -7 0
23 -22 0
7 22 -23 0
-25 -23 0
-25 -24 0
23 24 25 0
-25 12 -26 0
25 -12 -26 0
-25 -12 26 0
25 12 26 0
3 1 -27 0
-3 -1 -27 0
3 -1 27 0
-3 1 27 0
-27 -28 -29 0
27 28 -29 0
-27 28 29 0
27 -28 29 0
30 -6 0
30 29 0
6 -29 -30 0
-31 18 0
-31 30 0
-18 -30 31 0
32 26 0
32 -31 0
-26 31 -32 0
33 -21 0
33 32 0
21 -32 -33 0
25 -1 -34 0
-25 1 -34 0
25 1 34 0
-25 -1 34 0
-36 -34 0
-36 35 0
34 -35 36 0
-37 36 0
-37 10 0
-36 -10 37 0
17 37 -38 0
-17 -37 -38 0
17 -37 38 0
-17 37 38 0
39 13 0
39 -27 0
-13 27 -39 0
38 -39 -40 0
-38 39 -40 0
38 39 40 0
-38 -39 40 0
41 -33 0
41 -40 0
33 40 -41 0
43 42 0
43 22 0
-42 -22 -43 0
-43 22 -44 0
43 -22 -44 0
-43 -22 44 0
43 22 44 0
-45 -44 0
-45 -34 0
44 34 45 0
46 3 0
46 -45 0
-3 45 -46 0
47 41 0
47 -46 0
-41 46 -47 0
10 9 -48 0
-10 -9 -48 0
10 -9 48 0
-10 9 48 0
50 -48 0
50 49 0
48 -49 -50 0
51 24 0
51 -27 0
-24 27 -51 0
-53 51 0
-53 52 0
-51 -52 53 0
-54 -28 0
-54 -28 0
28 54 0
-54 -15 -55 0
54 15 -55 0
-54 15 55 0
54 -15 55 0
55 36 -56 0
-55 -36 -56 0
55 -36 56 0
-55 36 56 0
53 -56 -57 0
-53 56 -57 0
53 56 57 0
-53 -56 57 0
58 16 0
58 -36 0
-16 36 -58 0
-59 58 0
-59 -3 0
-58 3 59 0
-60 43 0
-60 -59 0
-43 59 60 0
61 5 0
61 23 0
-5 -23 -61 0
62 48 0
62 -42 0
-48 42 -62 0
-24 63 0
24 63 0
64 28 0
64 63 0
-28 -63 -64 0
65 17 0
65 64 0
-17 -64 -65 0
66 -65 0
66 -27 0
65 27 -66 0
-67 9 0
-67 -52 0
-9 52 67 0
66 -67 -68 0
-66 67 -68 0
66 67 68 0
-66 -67 68 0
-69 -62 0
-69 -68 0
62 68 69 0
-70 61 0
-70 -69 0
-61 69 70 0
-71 60 0
-71 -70 0
-60 70 71 0
57 -71 -72 0
-57 71 -72 0
57 71 72 0
-57 -71 72 0
-73 -50 0
-73 72 0
50 -72 73 0
-24 -6 -74 0
24 6 -74 0
-24 6 74 0
24 -6 74 0
75 -74 0
75 22 0
74 -22 -75 0
76 23 0
76 -63 0
-23 63 -76 0
77 48 0
77 -13 0
-48 13 -77 0
-78 -76 0
-78 77 0
76 -77 78 0
79 -75 0
79 78 0
75 -78 -79 0
80 -49 0
80 -35 0
49 35 -80 0
81 42 0
81 -9 0
-42 9 -81 0
82 -81 0
82 -24 0
81 24 -82 0
-83 -64 0
-83 -82 0
64 82 83 0
83 -29 -84 0
-83 29 -84 0
83 29 84 0
-83 -29 84 0
85 -14 0
85 -84 0
14 84 -85 0
-86 -27 0
-86 -13 0
27 13 86 0
87 66 0
87 -67 0
-66 67 -87 0
-88 -86 0
-88 87 0
86 -87 88 0
-89 23 0
-89 4 0
-23 -4 89 0
-90 -48 0
-90 89 0
48 -89 90 0
-88 90 -91 0
88 -90 -91 0
-88 -90 91 0
88 90 91 0
85 91 -92 0
-85 -91 -92 0
85 -91 92 0
-85 91 92 0
93 -80 0
93 92 0
80 -92 -93 0
-94 43 0
-94 35 0
-43 -35 94 0
-95 -52 0
-95 82 0
52 -82 95 0
-96 -7 0
-96 -64 0
7 64 96 0
-97 13 0
-97 -96 0
-13 96 97 0
-95 97 -98 0
95 -97 -98 0
-95 -97 98 0
95 97 98 0
99 -29 0
99 -98 0
29 98 -99 0
-100 94 0
-100 -99 0
-94 99 100 0
-101 27 0
-101 81 0
-27 -81 101 0
-100 -101 -102 0
100 101 -102 0
-100 101 102 0
100 -101 102 0
-103 -14 0
-103 -9 0
14 9 103 0
89 104 -105 0
-89 -104 -105 0
89 -104 105 0
-89 104 105 0
-106 -23 0
-106 -105 0
23 105 106 0
-107 -11 0
-107 106 0
11 -106 107 0
-108 -13 0
-108 -74 0
13 74 108 0
109 107 0
109 108 0
-107 -108 -109 0
-110 -103 0
-110 -109 0
103 109 110 0
111 -102 0
111 110 0
102 -110 -111 0
112 93 0
112 -111 0
-93 111 -112 0
-113 2 0
-113 59 0
-2 -59 113 0
-23 28 -114 0
23 -28 -114 0
-23 -28 114 0
23 28 114 0
115 -43 0
115 44 0
43 -44 -115 0
114 -115 -116 0
-114 115 -116 0
114 115 116 0
-114 -115 116 0
117 -113 0
117 116 0
113 -116 -117 0
-118 -112 0
-118 117 0
112 -117 118 0
34 -44 -119 0
-34 44 -119 0
34 44 119 0
-34 -44 119 0
118 119 -120 0
-118 -119 -120 0
118 -119 120 0
-118 119 120 0
96 37 -121 0
-96 -37 -121 0
96 -37 121 0
-96 37 121 0
-120 121 -122 0
120 -121 -122 0
-120 -121 122 0
120 121 122 0
79 122 -123 0
-79 -122 -123 0
79 -122 123 0
-79 122 123 0
-73 123 -124 0
73 -123 -124 0
-73 -123 124 0
73 123 124 0
36 -37 -125 0
-36 37 -125 0
36 37 125 0
-36 -37 125 0
126 124 0
126 -125 0
-124 125 -126 0
127 -47 0
127 126 0
47 -126 -127 0
-128 18 0
-128 6 0
-18 -6 128 0
-129 12 0
-129 -54 0
-12 54 129 0
130 -128 0
130 129 0
128 -129 -130 0
-131 -29 0
-131 -14 0
29 14 131 0
132 -82 0
132 -9 0
82 9 -132 0
58 89 -133 0
-58 -89 -133 0
58 -89 133 0
-58 89 133 0
-134 -132 0
-134 -133 0
132 133 134 0
-135 131 0
-135 134 0
-131 -134 135 0
-130 135 -136 0
130 -135 -136 0
-130 -135 136 0
130 135 136 0
-137 6 0
-137 36 0
-6 -36 137 0
138 -104 0
138 -2 0
104 2 -138 0
-139 137 0
-139 -138 0
-137 138 139 0
140 8 0
140 36 0
-8 -36 -140 0
141 -43 0
141 44 0
43 -44 -141 0
-142 -81 0
-142 34 0
81 -34 142 0
143 -142 0
143 137 0
142 -137 -143 0
144 -11 0
144 143 0
11 -143 -144 0
145 -141 0
145 -144 0
141 144 -145 0
-146 -140 0
-146 145 0
140 -145 146 0
-147 139 0
-147 146 0
-139 -146 147 0
-136 147 -148 0
136 -147 -148 0
-136 -147 148 0
136 147 148 0
-149 127 0
-149 -148 0
-127 148 149 0
-144 101 -106 0
130 140 -65 120 23 -57 0
-124 -52 -66 -30 0
-96 -25 142 62 -61 0
-122 -7 -88 24 -18 0
-40 33 -90 66 -16 0
95 44 0
101 -92 0
68 85 -101 -130 0
14 -112 42 0
19 13 144 -122 -30 0
131 -59 0
-26 9 -126 69 0
-79 43 -119 0
149 129 37 17 0
42 140 44 -90 0
-32 -71 10 0
-102 -114 -147 -99 0
121 49 0
-113 -26 0
-36 -5 -78 -99 46 131 0
52 91 51 6 142 21 0
136 45 24 122 -117 128 0
41 90 -108 0
-139 -75 0
-142 147 0
-54 138 0
-69 -56 0
91 95 -21 0
-93 89 -88 145 0
-117 -45 0
-126 35 -6 -61 -42 0
-65 78 -127 125 21 -49 0
-141 -45 15 0
-135 -65 4 0
-36 79 145 -147 -61 -30 0
-89 142 91 120 99 0
-16 -56 107 -32 0
130 121 0
83 -25 -88 -48 -106 40 0
101 22 0
79 16 136 0
-13 -10 1 -105 112 0
60 128 0
-6 27 132 20 5 -130 0
-38 113 66 11 26 149 0
-73 -95 128 53 -67 0
59 124 0
-59 11 76 0
33 117 0
130 -131 -120 63 -28 -134 0
19 117 63 0
-12 108 0
114 144 0
99 95 3 -62 0
-132 133 -26 22 37 0
146 -100 0
-77 -119 88 20 0
-93 -94 -26 0
-141 -65 17 -75 0
87 16 0
-143 -148 -134 0
89 10 -86 -17 0
-17 -44 84 127 -112 0
-54 101 0
-126 -47 0
149 0
